p cnf 52 184
3 1 0
3 -2 0
-1 2 -3 0
-5 -3 0
-5 -4 0
3 4 5 0
-8 -6 0
-8 -7 0
6 7 8 0
-9 -5 0
-9 -8 0
5 8 9 0
-10 4 0
-10 -6 0
-4 6 10 0
-11 -7 -12 0
11 7 -12 0
-11 7 12 0
11 -7 12 0
12 -10 -13 0
-12 10 -13 0
12 10 13 0
-12 -10 13 0
14 -10 0
14 13 0
10 -13 -14 0
15 -14 0
15 13 0
14 -13 -15 0
-12 -16 -17 0
12 16 -17 0
-12 16 17 0
12 -16 17 0
-15 17 -18 0
15 -17 -18 0
-15 -17 18 0
15 17 18 0
-19 -10 0
-19 6 0
10 -6 19 0
-18 19 -20 0
18 -19 -20 0
-18 -19 20 0
18 19 20 0
21 -9 0
21 -20 0
9 20 -21 0
16 6 -22 0
-16 -6 -22 0
16 -6 22 0
-16 6 22 0
-14 22 -23 0
14 -22 -23 0
-14 -22 23 0
14 22 23 0
23 2 -24 0
-23 -2 -24 0
23 -2 24 0
-23 2 24 0
2 -11 -25 0
-2 11 -25 0
2 11 25 0
-2 -11 25 0
26 24 0
26 25 0
-24 -25 -26 0
-27 -14 0
-27 5 0
14 -5 27 0
-28 -4 0
-28 16 0
4 -16 28 0
30 -12 0
30 -16 0
12 16 -30 0
-32 30 0
-32 31 0
-30 -31 32 0
-33 29 0
-33 32 0
-29 -32 33 0
-28 33 -34 0
28 -33 -34 0
-28 -33 34 0
28 33 34 0
-35 -3 0
-35 -3 0
3 35 0
36 35 0
36 -13 0
-35 13 -36 0
37 -3 0
37 36 0
3 -36 -37 0
38 34 0
38 37 0
-34 -37 -38 0
27 -38 -39 0
-27 38 -39 0
27 38 39 0
-27 -38 39 0
-26 39 -40 0
26 -39 -40 0
-26 -39 40 0
26 39 40 0
36 -1 -41 0
-36 1 -41 0
36 1 41 0
-36 -1 41 0
35 -6 -42 0
-35 6 -42 0
35 6 42 0
-35 -6 42 0
-43 -41 0
-43 -42 0
41 42 43 0
45 -13 0
45 -44 0
13 44 -45 0
46 -14 0
46 1 0
14 -1 -46 0
47 45 0
47 46 0
-45 -46 -47 0
-43 -47 -48 0
43 47 -48 0
-43 47 48 0
43 -47 48 0
49 -40 0
49 -48 0
40 48 -49 0
50 -21 0
50 -49 0
21 49 -50 0
51 -31 0
51 23 0
31 -23 -51 0
52 50 0
52 -51 0
-50 51 -52 0
34 48 2 0
34 37 2 0
31 -20 9 -47 52 -14 0
33 -18 -31 0
24 -17 0
5 -21 -16 11 39 41 0
-31 30 0
1 28 17 -49 36 0
17 22 -30 4 0
-22 24 8 5 0
-48 32 -30 0
30 11 -26 -20 -6 -24 0
37 -23 -45 28 25 -26 0
-22 46 0
49 -51 -6 4 0
45 4 -17 0
4 -13 37 18 8 1 0
45 -38 13 49 0
27 17 -36 0
35 43 -30 -51 0
-43 12 -42 40 -17 0
19 43 0
-17 -35 4 1 -18 0
-24 -4 0
-14 -32 -35 0
-4 -28 42 -46 41 -16 0
15 14 2 -50 8 0
35 -9 30 -40 -21 0
32 28 -48 -2 -1 -40 0
43 -9 40 39 0
29 -41 0
-19 -35 0
-2 41 0
16 -21 -27 46 22 -32 0
-49 15 -1 45 32 -36 0
-10 35 3 28 26 0
-11 -5 39 -20 0
-21 7 -52 -8 -20 0
35 -21 51 24 -15 -33 0
-30 -48 0
-16 -32 20 -26 21 -48 0
38 5 0
52 0
